NAME : instance_15_300
TYPE : TSP
DIMENSION : 15
EDGE_WEIGHT_TYPE : EUC_2D
LOWER : 0
UPPER : 100
NODE_COORD_SECTION
1 77.9685413465 78.6919430364
2 2.045048913 46.103782556
3 46.9162986148 80.6194897741
4 54.3240236817 24.5609751903
5 87.3958639335 77.6042389218
6 27.7287885547 90.2997636003
7 33.0822114833 63.5866566561
8 26.1979801347 23.3370473376
9 7.2029022733 27.4022707483
10 69.7791920975 53.2050978392
11 27.5961764855 92.144929897
12 41.3190778578 77.9430041555
13 24.4733139873 70.8681759657
14 43.1364272023 53.2344128937
15 10.5879059993 60.1941561792
EOF
